
Gurobi 10.0.0 (win64) logging started Thu Jun 13 12:42:44 2024

Set parameter LogFile to value "C:\Users\ealvarezq\Documents\GitHub\Comillas\Models\JointResearch\05. Models\06.Benchmarking\E.Representative_days_based_on_Line_Benefits_OptModel\RTS24_mod2_ByStages_nc200/openStarNet_RTS24_mod2_ByStages_nc200.log"
Set parameter Method to value 2
Set parameter MIPFocus to value 1
Set parameter Presolve to value 2
Set parameter RINS to value 100
Set parameter MIPGap to value 0.01
Set parameter Threads to value 9
Set parameter TimeLimit to value 259200
Set parameter IterationLimit to value 760000000
Gurobi Optimizer version 10.0.0 build v10.0.0rc2 (win64)

CPU model: Intel(R) Core(TM) i7-8700 CPU @ 3.20GHz, instruction set [SSE2|AVX|AVX2]
Thread count: 6 physical cores, 12 logical processors, using up to 9 threads

Optimize a model with 71003 rows, 47838 columns and 193277 nonzeros
Model fingerprint: 0x31f94310
Variable types: 47817 continuous, 21 integer (21 binary)
Coefficient statistics:
  Matrix range     [1e-03, 5e+02]
  Objective range  [1e+00, 1e+00]
  Bounds range     [3e-05, 3e+00]
  RHS range        [3e-05, 3e+00]
Presolve removed 42268 rows and 24222 columns
Presolve time: 0.28s
Presolved: 28735 rows, 23616 columns, 103705 nonzeros
Variable types: 23595 continuous, 21 integer (21 binary)
Root relaxation presolved: 28735 rows, 23616 columns, 103705 nonzeros

Root barrier log...

Ordering time: 0.01s

Barrier statistics:
 Dense cols : 21
 AA' NZ     : 1.927e+05
 Factor NZ  : 5.357e+05 (roughly 26 MB of memory)
 Factor Ops : 1.194e+07 (less than 1 second per iteration)
 Threads    : 8

                  Objective                Residual
Iter       Primal          Dual         Primal    Dual     Compl     Time
   0   6.52334938e+05 -1.65827757e+08  5.22e+00 2.46e+02  6.88e+03     0s
   1   9.67847916e+04 -4.27189785e+07  6.70e-01 1.05e-08  9.49e+02     0s
   2   3.93068689e+04 -9.11386820e+06  1.85e-01 4.95e-09  1.72e+02     0s
   3   1.76877160e+04 -1.19961001e+06  4.98e-03 2.52e-09  1.84e+01     1s
   4   7.85917696e+03 -1.25136202e+05  1.22e-04 2.07e-10  1.99e+00     1s
   5   2.31754326e+03 -3.52585487e+04  1.21e-05 5.32e-11  5.61e-01     1s
   6   9.97074220e+02 -8.84827875e+03  1.17e-06 1.30e-11  1.47e-01     1s
   7   5.31632181e+02 -3.17867777e+03  3.59e-07 4.32e-12  5.54e-02     1s
   8   2.21259135e+02 -1.05018057e+03  9.07e-08 1.27e-12  1.90e-02     1s
   9   9.61632401e+01 -1.81165320e+02  1.56e-08 8.08e-13  4.14e-03     1s
  10   7.89947323e+01 -1.18353115e+02  9.84e-09 9.99e-13  2.95e-03     1s
  11   6.07844401e+01 -7.80435626e+01  4.29e-09 7.29e-13  2.07e-03     1s
  12   5.82472635e+01 -4.33794557e+01  3.64e-09 1.18e-12  1.52e-03     1s
  13   5.30172194e+01 -2.43610274e+01  2.40e-09 1.33e-12  1.16e-03     1s
  14   5.00287492e+01  7.20718016e+00  1.81e-09 9.04e-13  6.40e-04     1s
  15   4.74095766e+01  2.21979416e+01  1.31e-09 1.21e-12  3.77e-04     1s
  16   4.48873590e+01  2.88362525e+01  8.81e-10 1.20e-12  2.40e-04     1s
  17   4.38987594e+01  3.02771141e+01  7.22e-10 1.34e-12  2.04e-04     1s
  18   4.30562288e+01  3.30574162e+01  5.81e-10 1.69e-12  1.49e-04     1s
  19   4.19784635e+01  3.54477810e+01  3.77e-10 7.09e-13  9.76e-05     1s
  20   4.10335969e+01  3.67772902e+01  2.03e-10 6.82e-13  6.36e-05     1s
  21   4.06687946e+01  3.79796483e+01  1.31e-10 5.49e-13  4.02e-05     1s
  22   4.05628682e+01  3.80234559e+01  1.14e-10 8.26e-13  3.79e-05     1s
  23   4.04309472e+01  3.85758330e+01  9.23e-11 6.53e-13  2.77e-05     1s
  24   4.03570186e+01  3.89638941e+01  7.83e-11 6.51e-13  2.08e-05     1s
  25   4.01088191e+01  3.91996176e+01  3.62e-11 5.99e-13  1.36e-05     1s
  26   4.00216017e+01  3.95403392e+01  3.60e-11 6.56e-13  7.19e-06     1s
  27   3.99729870e+01  3.96964544e+01  4.22e-11 8.16e-13  4.13e-06     1s
  28   3.99435738e+01  3.98269578e+01  3.32e-11 4.68e-13  1.74e-06     1s
  29   3.99297145e+01  3.98455248e+01  3.50e-11 1.02e-12  1.26e-06     1s
  30   3.99118573e+01  3.98913704e+01  8.22e-11 1.05e-12  3.06e-07     1s
  31   3.99051337e+01  3.99017286e+01  7.51e-11 1.56e-12  5.09e-08     1s
  32   3.99040859e+01  3.99034756e+01  1.17e-10 9.47e-13  9.12e-09     1s
  33   3.99039522e+01  3.99037250e+01  7.62e-11 3.79e-12  3.39e-09     1s
  34   3.99038458e+01  3.99037794e+01  3.61e-10 1.68e-12  9.93e-10     1s
  35   3.99038225e+01  3.99038161e+01  1.44e-09 1.12e-12  9.60e-11     1s
  36   3.99038213e+01  3.99038182e+01  1.67e-07 5.51e-13  4.61e-11     1s
  37   3.99038207e+01  3.99038194e+01  7.79e-08 5.65e-13  2.01e-11     1s
  38   3.99038202e+01  3.99038202e+01  2.25e-09 9.67e-13  7.56e-14     1s

Barrier solved model in 38 iterations and 0.98 seconds (0.86 work units)
Optimal objective 3.99038202e+01


Root relaxation: objective 3.990382e+01, 4047 iterations, 0.85 seconds (0.72 work units)

    Nodes    |    Current Node    |     Objective Bounds      |     Work
 Expl Unexpl |  Obj  Depth IntInf | Incumbent    BestBd   Gap | It/Node Time

     0     0   39.90382    0   17          -   39.90382      -     -    1s
H    0     0                      76.4154870   39.90382  47.8%     -    2s
H    0     0                      67.0141943   41.00530  38.8%     -    3s
     0     0   41.00530    0   14   67.01419   41.00530  38.8%     -    3s
     0     0   41.01530    0   14   67.01419   41.01530  38.8%     -    4s
     0     0   41.01825    0   12   67.01419   41.01825  38.8%     -    4s
     0     0   41.05584    0   14   67.01419   41.05584  38.7%     -    5s
     0     0   41.05667    0   14   67.01419   41.05667  38.7%     -    5s
     0     0   41.05667    0   14   67.01419   41.05667  38.7%     -    5s
H    0     0                      66.9240619   41.41086  38.1%     -    6s
     0     0   41.41086    0   14   66.92406   41.41086  38.1%     -    6s
     0     0   41.47198    0   12   66.92406   41.47198  38.0%     -    6s
     0     0   41.73446    0   12   66.92406   41.73446  37.6%     -    6s
     0     0   41.73446    0   12   66.92406   41.73446  37.6%     -    6s
     0     0   41.73446    0   11   66.92406   41.73446  37.6%     -    7s
H    0     0                      64.3999944   41.73446  35.2%     -    8s
     0     0   41.97557    0   12   64.39999   41.97557  34.8%     -    8s
     0     0   41.97557    0   11   64.39999   41.97557  34.8%     -    8s
     0     0   41.97557    0   11   64.39999   41.97557  34.8%     -    8s
     0     0   41.97557    0   11   64.39999   41.97557  34.8%     -    8s
     0     0   41.97557    0   11   64.39999   41.97557  34.8%     -    8s
     0     0   42.24852    0   11   64.39999   42.24852  34.4%     -    8s
     0     0   42.24852    0   11   64.39999   42.24852  34.4%     -    8s
     0     0   42.24852    0   11   64.39999   42.24852  34.4%     -    8s
     0     0   42.24852    0   12   64.39999   42.24852  34.4%     -    9s
     0     0   42.32026    0   12   64.39999   42.32026  34.3%     -    9s
     0     0   42.49737    0   12   64.39999   42.49737  34.0%     -   11s
H    0     0                      58.3655275   42.49737  27.2%     -   13s
H    0     0                      57.7158665   42.49737  26.4%     -   36s
     0     2   42.49737    0   12   57.71587   42.49737  26.4%     -   37s
     7    16   42.98207    3   16   57.71587   42.67846  26.1%  2417   41s
    42    50   45.22629    6   13   57.71587   43.07159  25.4%  1597   45s
    73    67   49.66284    8   12   57.71587   43.07159  25.4%  1332   50s
    92    85   52.74549   10   10   57.71587   43.07159  25.4%  1319   62s
   101    94   55.52209   10   10   57.71587   43.07159  25.4%  1318   66s
   138   117   57.61366   14    6   57.71587   44.15988  23.5%  1308   70s
   197   156   53.83922    7    8   57.71587   44.15988  23.5%  1265   99s
   227   159   56.28605    8   11   57.71587   44.15988  23.5%  1202  101s
   288   170     cutoff    9        57.71587   45.29941  21.5%  1122  106s
   322   194   55.85359    6    6   57.71587   45.29941  21.5%  1176  110s
   381   185     cutoff    7        57.71587   46.97897  18.6%  1148  115s
   436   214   53.77934   11    9   57.71587   46.98551  18.6%  1138  120s
   517   219   52.92810    9   11   57.71587   47.34641  18.0%  1080  126s
   584   233     cutoff    9        57.71587   47.34641  18.0%  1074  132s
   614   230   57.63179   11   10   57.71587   47.34641  18.0%  1075  135s
   698   258   53.88846    6   10   57.71587   48.99327  15.1%  1059  196s
   733   261   56.21809    9    7   57.71587   50.31579  12.8%  1050  201s
   807   267   52.27931    9   11   57.71587   50.31579  12.8%  1016  206s
   848   282   54.11190   11    9   57.71587   50.31579  12.8%  1010  210s
   901   285     cutoff   16        57.71587   50.64161  12.3%   997  215s
   924   285     cutoff   11        57.71587   50.93046  11.8%   994  220s
  1065   278   56.50195   13    7   57.71587   51.65255  10.5%   970  230s
  1158   271     cutoff   10        57.71587   52.42527  9.17%   950  235s
  1270   271   57.31589   15    5   57.71587   52.79667  8.52%   918  240s
  1367   265   55.38517   13    7   57.71587   53.22019  7.79%   902  247s
  1476   259   56.88378    9    6   57.71587   53.72092  6.92%   886  254s
  1601   238     cutoff   13        57.71587   54.07936  6.30%   862  260s
  1745   193     cutoff   13        57.71587   54.49597  5.58%   837  266s
  1893   130     cutoff    9        57.71587   54.97412  4.75%   815  333s
  2051    12     cutoff    8        57.71587   55.35488  4.09%   785  339s

Cutting planes:
  Gomory: 3
  Implied bound: 300
  MIR: 792
  Relax-and-lift: 129

Explored 2330 nodes (1712444 simplex iterations) in 340.03 seconds (558.01 work units)
Thread count was 9 (of 12 available processors)

Solution count 6: 57.7159 58.3655 64.4 ... 76.4155

Optimal solution found (tolerance 1.00e-02)
Best objective 5.771586645757e+01, best bound 5.771586645757e+01, gap 0.0000%

Gurobi 10.0.0 (win64) logging started Thu Jun 13 12:48:55 2024

Set parameter LogFile to value "C:\Users\ealvarezq\Documents\GitHub\Comillas\Models\JointResearch\05. Models\06.Benchmarking\E.Representative_days_based_on_Line_Benefits_OptModel\RTS24_mod2_ByStages_nc200/openStarNet_RTS24_mod2_ByStages_nc200.log"
Set parameter Method to value 2
Set parameter MIPFocus to value 1
Set parameter Presolve to value 2
Set parameter RINS to value 100
Set parameter MIPGap to value 0.01
Set parameter Threads to value 9
Set parameter TimeLimit to value 259200
Set parameter IterationLimit to value 760000000
Gurobi Optimizer version 10.0.0 build v10.0.0rc2 (win64)

CPU model: Intel(R) Core(TM) i7-8700 CPU @ 3.20GHz, instruction set [SSE2|AVX|AVX2]
Thread count: 6 physical cores, 12 logical processors, using up to 9 threads

Optimize a model with 71003 rows, 47817 columns and 176456 nonzeros
Model fingerprint: 0xafb918e7
Coefficient statistics:
  Matrix range     [1e-03, 5e+02]
  Objective range  [1e+00, 1e+00]
  Bounds range     [3e-05, 3e+00]
  RHS range        [3e-05, 2e+01]
Presolve removed 59806 rows and 27667 columns
Presolve time: 0.09s
Presolved: 11197 rows, 20554 columns, 50576 nonzeros

Ordering time: 0.00s

Barrier statistics:
 AA' NZ     : 2.938e+04
 Factor NZ  : 1.101e+05 (roughly 11 MB of memory)
 Factor Ops : 1.609e+06 (less than 1 second per iteration)
 Threads    : 9

                  Objective                Residual
Iter       Primal          Dual         Primal    Dual     Compl     Time
   0   7.09476270e+06 -1.36985516e+08  6.21e+01 4.24e+02  6.79e+04     0s
   1   4.04551262e+05 -9.99788027e+07  3.25e+00 6.82e-12  5.82e+03     0s
   2   6.99449781e+04 -2.09810438e+07  4.88e-01 1.77e-11  8.51e+02     0s
   3   3.00063933e+04 -5.34956820e+06  9.59e-02 6.37e-12  1.77e+02     0s
   4   1.86453788e+04 -8.84254850e+05  7.87e-03 5.00e-12  2.59e+01     0s
   5   1.00389356e+04 -3.45869778e+05  2.16e-04 3.64e-12  9.91e+00     0s
   6   4.22119422e+03 -6.77365468e+04  7.83e-06 3.64e-12  2.00e+00     0s
   7   1.64220620e+03 -1.44432540e+04  2.96e-07 2.07e-12  4.47e-01     0s
   8   8.28235600e+02 -3.53899497e+03  4.51e-08 2.01e-12  1.21e-01     0s
   9   3.36092006e+02 -1.00224270e+03  7.15e-09 1.26e-12  3.72e-02     0s
  10   1.51036118e+02 -1.87240532e+02  1.92e-09 1.56e-12  9.41e-03     0s
  11   9.62689074e+01 -1.94035255e+00  7.01e-10 1.37e-12  2.73e-03     0s
  12   7.84275801e+01  3.58901040e+01  3.51e-10 1.02e-12  1.18e-03     0s
  13   6.83570361e+01  4.96931309e+01  1.71e-10 1.57e-12  5.19e-04     0s
  14   6.26549038e+01  5.47394073e+01  7.74e-11 6.44e-13  2.20e-04     0s
  15   5.98210087e+01  5.64023281e+01  3.41e-11 1.13e-12  9.51e-05     0s
  16   5.82638776e+01  5.72636218e+01  1.75e-10 1.15e-12  2.78e-05     0s
  17   5.79315105e+01  5.75600182e+01  1.94e-09 1.01e-12  1.03e-05     0s
  18   5.77541834e+01  5.76793008e+01  1.33e-09 1.45e-12  2.08e-06     0s
  19   5.77199269e+01  5.77130771e+01  9.85e-10 1.26e-12  1.90e-07     0s
  20   5.77160038e+01  5.77156740e+01  2.96e-10 1.63e-12  9.17e-09     0s
  21   5.77158678e+01  5.77158640e+01  5.59e-10 1.27e-12  1.06e-10     0s
  22   5.77158664e+01  5.77158665e+01  7.08e-10 9.34e-13  4.02e-16     0s

Barrier solved model in 22 iterations and 0.25 seconds (0.23 work units)
Optimal objective 5.77158664e+01

Crossover log...

    2395 DPushes remaining with DInf 0.0000000e+00                 0s
       0 DPushes remaining with DInf 0.0000000e+00                 0s

     745 PPushes remaining with PInf 0.0000000e+00                 0s
       0 PPushes remaining with PInf 0.0000000e+00                 0s

  Push phase complete: Pinf 0.0000000e+00, Dinf 1.4374313e-13      0s

Iteration    Objective       Primal Inf.    Dual Inf.      Time
     859    5.7715866e+01   0.000000e+00   0.000000e+00      0s

Use crossover to convert LP symmetric solution to basic solution...
Crossover log...

       0 DPushes remaining with DInf 0.0000000e+00                 0s

     431 PPushes remaining with PInf 0.0000000e+00                 0s
       0 PPushes remaining with PInf 0.0000000e+00                 0s

  Push phase complete: Pinf 0.0000000e+00, Dinf 1.1313182e-13      0s

Iteration    Objective       Primal Inf.    Dual Inf.      Time
    1344    5.7715866e+01   0.000000e+00   0.000000e+00      0s

Solved in 1344 iterations and 0.39 seconds (0.29 work units)
Optimal objective  5.771586646e+01
